%nprocshared=2
%mem=1GB
%chk=q1a.chk
# rhf/3-21g guess=tcheck geom=connectivity

RHF for LiH

0 1
 Li             
 H                  1            B1

   B1             1.53000000

 1 2 1.0
 2

